30
0 1 0.47 0.32
0 2 0.68 0.44
0 3 0.74 0.33
0 4 0.3 0.26
0 5 0.46 0.23
0 6 0.46 0.26
0 7 0.49 0.24
0 8 0.66 0.24
0 9 0.5 0.17
0 10 0.56 0.07
0 11 0.7 0.31
0 12 0.64 0.3
0 13 0.38 0.25
0 14 0.68 0.31
0 15 0.65 0.27
0 16 0.66 0.41
0 17 0.65 0.33
0 18 0.7 0.28
0 19 0.64 0.31
0 20 0.35 0.19
0 21 0.61 0.28
0 22 0.78 0.12
0 23 0.62 0.24
0 24 0.42 0.04
0 25 0.62 0.26
0 26 0.61 0.25
0 27 0.66 0.13
0 28 0.67 0.32
0 29 0.74 0.23
1 2 0.5 0.25
1 3 0.56 0.16
1 4 0.17 0.12
1 5 0.65 0.23
1 6 0.58 0.3
1 7 0.56 0.2
1 8 0.68 0.3
1 9 0.37 0.27
1 10 0.59 0.25
1 11 0.58 0.24
1 12 0.52 0.07
1 13 0.62 0.29
1 14 0.54 0.32
1 15 0.28 0.08
1 16 0.45 0.32
1 17 0.75 0.29
1 18 0.48 0.2
1 19 0.69 0.22
1 20 0.58 0.32
1 21 0.53 0.13
1 22 0.46 0.29
1 23 0.52 0.08
1 24 0.5 0.35
1 25 0.62 0.16
1 26 0.5 0.28
1 27 0.36 0.22
1 28 0.62 0.22
1 29 0.46 0.16
2 3 0.41 0.26
2 4 0.67 0.32
2 5 0.42 0.29
2 6 0.5 0.32
2 7 0.76 0.28
2 8 0.76 0.26
2 9 0.55 0.37
2 10 0.54 0.37
2 11 0.5 0.16
2 12 0.86 0.28
2 13 0.72 0.5
2 14 0.61 0.42
2 15 0.68 0.18
2 16 0.64 0.27
2 17 0.5 0.37
2 18 0.64 0.28
2 19 0.2 0.18
2 20 0.52 0.34
2 21 0.74 0.34
2 22 0.56 0.4
2 23 0.54 0.32
2 24 0.71 0.4
2 25 0.4 0.32
2 26 0.5 0.33
2 27 0.66 0.32
2 28 0.58 0.24
2 29 0.59 0.24
3 4 0.44 0.28
3 5 0.38 0.23
3 6 0.74 0.34
3 7 0.86 0.22
3 8 0.58 0.31
3 9 0.41 0.31
3 10 0.43 0.26
3 11 0.5 0.34
3 12 0.78 0.18
3 13 0.74 0.4
3 14 0.47 0.41
3 15 0.34 0.08
3 16 0.38 0.26
3 17 0.49 0.24
3 18 0.5 0.36
3 19 0.42 0.38
3 20 0.41 0.29
3 21 0.44 0.24
3 22 0.65 0.34
3 23 0.54 0.24
3 24 0.77 0.35
3 25 0.62 0.28
3 26 0.49 0.32
3 27 0.72 0.22
3 28 0.64 0.28
3 29 0.65 0.26
4 5 0.68 0.24
4 6 0.61 0.25
4 7 0.54 0.17
4 8 0.64 0.18
4 9 0.2 0.16
4 10 0.75 0.26
4 11 0.52 0.16
4 12 0.35 0.19
4 13 0.46 0.18
4 14 0.71 0.42
4 15 0.45 0.2
4 16 0.62 0.27
4 17 0.73 0.26
4 18 0.65 0.32
4 19 0.52 0.22
4 20 0.42 0.32
4 21 0.54 0.25
4 22 0.63 0.29
4 23 0.4 0.2
4 24 0.33 0.26
4 25 0.47 0.04
4 26 0.55 0.33
4 27 0.48 0.26
4 28 0.74 0.33
4 29 0.63 0.21
5 6 0.83 0.33
5 7 0.65 0.19
5 8 0.74 0.37
5 9 0.79 0.08
5 10 0.61 0.16
5 11 0.46 0.31
5 12 0.73 0.23
5 13 0.51 0.4
5 14 0.58 0.4
5 15 0.72 0.31
5 16 0.56 0.24
5 17 0.68 0.28
5 18 0.58 0.23
5 19 0.62 0.4
5 20 0.7 0.36
5 21 0.74 0.29
5 22 0.34 0.24
5 23 0.78 0.15
5 24 0.76 0.24
5 25 0.62 0.28
5 26 0.42 0.22
5 27 0.67 0.18
5 28 0.58 0.27
5 29 0.58 0.23
6 7 0.64 0.14
6 8 0.57 0.14
6 9 0.81 0.34
6 10 0.56 0.3
6 11 0.56 0.24
6 12 0.36 0.24
6 13 0.7 0.23
6 14 0.54 0.18
6 15 0.63 0.34
6 16 0.74 0.32
6 17 0.82 0.23
6 18 0.95 0.38
6 19 0.6 0.39
6 20 0.76 0.34
6 21 0.71 0.3
6 22 0.71 0.26
6 23 0.63 0.26
6 24 0.7 0.3
6 25 0.68 0.21
6 26 0.72 0.3
6 27 0.64 0.36
6 28 0.76 0.3
6 29 0.71 0.18
7 8 0.38 0.18
7 9 0.74 0.2
7 10 0.62 0.29
7 11 0.6 0.12
7 12 0.52 0.2
7 13 0.87 0.25
7 14 0.77 0.26
7 15 0.69 0.24
7 16 0.58 0.18
7 17 0.65 0.09
7 18 0.42 0.24
7 19 0.7 0.36
7 20 0.64 0.2
7 21 0.8 0.26
7 22 0.47 0.12
7 23 0.64 0.12
7 24 0.8 0.2
7 25 0.68 0.21
7 26 0.7 0.16
7 27 0.71 0.3
7 28 0.32 0.16
7 29 0.6 0.04
8 9 0.76 0.34
8 10 0.87 0.31
8 11 0.68 0.1
8 12 0.52 0.28
8 13 0.83 0.36
8 14 0.65 0.24
8 15 0.41 0.24
8 16 0.3 0.21
8 17 0.56 0.27
8 18 0.63 0.38
8 19 0.7 0.4
8 20 0.46 0.34
8 21 0.72 0.34
8 22 0.54 0.3
8 23 0.52 0.26
8 24 0.84 0.28
8 25 0.68 0.22
8 26 0.32 0.28
8 27 0.82 0.3
8 28 0.7 0.34
8 29 0.39 0.18
9 10 0.65 0.1
9 11 0.69 0.24
9 12 0.55 0.2
9 13 0.66 0.34
9 14 0.68 0.34
9 15 0.5 0.24
9 16 0.53 0.32
9 17 0.77 0.29
9 18 0.6 0.2
9 19 0.47 0.34
9 20 0.62 0.28
9 21 0.59 0.26
9 22 0.83 0.24
9 23 0.6 0.23
9 24 0.53 0.16
9 25 0.27 0.2
9 26 0.75 0.28
9 27 0.46 0.1
9 28 0.58 0.19
9 29 0.6 0.16
10 11 0.74 0.33
10 12 0.5 0.25
10 13 0.74 0.32
10 14 0.58 0.24
10 15 0.5 0.2
10 16 0.58 0.36
10 17 0.66 0.38
10 18 0.68 0.24
10 19 0.46 0.24
10 20 0.43 0.24
10 21 0.68 0.31
10 22 0.59 0.19
10 23 0.35 0.17
10 24 0.56 0.11
10 25 0.38 0.29
10 26 0.76 0.18
10 27 0.52 0.06
10 28 0.74 0.29
10 29 0.63 0.25
11 12 0.64 0.24
11 13 0.79 0.34
11 14 0.66 0.34
11 15 0.54 0.28
11 16 0.38 0.11
11 17 0.52 0.21
11 18 0.66 0.28
11 19 0.48 0.34
11 20 0.5 0.24
11 21 0.41 0.3
11 22 0.76 0.24
11 23 0.78 0.16
11 24 0.36 0.27
11 25 0.68 0.2
11 26 0.51 0.2
11 27 0.65 0.34
11 28 0.82 0.28
11 29 0.52 0.08
12 13 0.8 0.22
12 14 0.64 0.25
12 15 0.62 0.1
12 16 0.76 0.25
12 17 0.6 0.24
12 18 0.66 0.2
12 19 0.76 0.29
12 20 0.46 0.25
12 21 0.35 0.06
12 22 0.57 0.22
12 23 0.58 0.08
12 24 0.68 0.3
12 25 0.8 0.23
12 26 0.84 0.28
12 27 0.42 0.24
12 28 0.77 0.15
12 29 0.68 0.16
13 14 0.34 0.33
13 15 0.71 0.32
13 16 0.58 0.32
13 17 0.27 0.16
13 18 0.64 0.36
13 19 0.52 0.4
13 20 0.64 0.2
13 21 0.84 0.16
13 22 0.4 0.2
13 23 0.47 0.3
13 24 0.59 0.28
13 25 0.72 0.22
13 26 0.57 0.36
13 27 0.38 0.28
13 28 0.7 0.37
13 29 0.62 0.29
14 15 0.66 0.35
14 16 0.54 0.44
14 17 0.28 0.17
14 18 0.7 0.45
14 19 0.81 0.48
14 20 0.36 0.2
14 21 0.62 0.31
14 22 0.61 0.38
14 23 0.58 0.33
14 24 0.72 0.35
14 25 0.74 0.39
14 26 0.52 0.21
14 27 0.68 0.3
14 28 0.48 0.37
14 29 0.68 0.3
15 16 0.71 0.34
15 17 0.47 0.31
15 18 0.7 0.28
15 19 0.59 0.3
15 20 0.3 0.3
15 21 0.56 0.16
15 22 0.46 0.32
15 23 0.24 0.16
15 24 0.44 0.27
15 25 0.64 0.2
15 26 0.66 0.32
15 27 0.64 0.14
15 28 0.62 0.25
15 29 0.52 0.2
16 17 0.69 0.27
16 18 0.62 0.27
16 19 0.44 0.4
16 20 0.72 0.25
16 21 0.46 0.19
16 22 0.46 0.3
16 23 0.82 0.27
16 24 0.54 0.37
16 25 0.38 0.31
16 26 0.58 0.31
16 27 0.76 0.31
16 28 0.47 0.3
16 29 0.69 0.19
17 18 0.42 0.33
17 19 0.62 0.45
17 20 0.64 0.2
17 21 0.9 0.3
17 22 0.66 0.21
17 23 0.57 0.21
17 24 0.63 0.29
17 25 0.81 0.3
17 26 0.58 0.25
17 27 0.65 0.38
17 28 0.71 0.25
17 29 0.74 0.13
18 19 0.5 0.4
18 20 0.52 0.36
18 21 0.66 0.26
18 22 0.24 0.16
18 23 0.76 0.12
18 24 0.64 0.24
18 25 0.57 0.36
18 26 0.5 0.32
18 27 0.54 0.18
18 28 0.52 0.35
18 29 0.66 0.2
19 20 0.55 0.38
19 21 0.64 0.35
19 22 0.38 0.24
19 23 0.47 0.3
19 24 0.51 0.32
19 25 0.2 0.18
19 26 0.56 0.42
19 27 0.58 0.3
19 28 0.38 0.22
19 29 0.65 0.34
20 21 0.26 0.19
20 22 0.64 0.23
20 23 0.54 0.24
20 24 0.62 0.15
20 25 0.44 0.36
20 26 0.62 0.28
20 27 0.55 0.18
20 28 0.32 0.24
20 29 0.76 0.16
21 22 0.44 0.16
21 23 0.48 0.14
21 24 0.71 0.24
21 25 0.46 0.22
21 26 0.66 0.34
21 27 0.68 0.3
21 28 0.58 0.21
21 29 0.5 0.22
22 23 0.64 0.24
22 24 0.74 0.08
22 25 0.58 0.3
22 26 0.74 0.28
22 27 0.78 0.25
22 28 0.54 0.2
22 29 0.72 0.16
23 24 0.52 0.27
23 25 0.65 0.24
23 26 0.42 0.2
23 27 0.76 0.23
23 28 0.66 0.23
23 29 0.28 0.08
24 25 0.6 0.22
24 26 0.62 0.29
24 27 0.47 0.17
24 28 0.48 0.28
24 29 0.46 0.19
25 26 0.76 0.32
25 27 0.38 0.23
25 28 0.58 0.37
25 29 0.76 0.25
26 27 0.7 0.24
26 28 0.68 0.32
26 29 0.16 0.12
27 28 0.44 0.24
27 29 0.82 0.26
28 29 0.72 0.2
